%%MatrixMarket matrix coordinate integer general
%D2 boundary operator (edges x triangles). Column t = triplet (i,j,k); rows are edges per edge_index.csv. Triangle (i<j<k): edge(i,j)->+1, edge(i,k)->-1, edge(j,k)->+1.
2997 1000 3000
1 1 1
2 1 -1
3 1 1
4 2 1
5 2 -1
6 2 1
7 3 1
8 3 -1
9 3 1
10 4 1
11 4 -1
12 4 1
13 5 1
14 5 -1
15 5 1
16 6 1
17 6 -1
18 6 1
19 7 1
20 7 -1
21 7 1
22 8 1
23 8 -1
24 8 1
25 9 1
26 9 -1
27 9 1
28 10 1
29 10 -1
30 10 1
31 11 1
32 11 -1
33 11 1
34 12 1
35 12 -1
36 12 1
37 13 1
38 13 -1
39 13 1
40 14 1
41 14 -1
42 14 1
43 15 1
44 15 -1
45 15 1
46 16 1
47 16 -1
48 16 1
49 17 1
50 17 -1
51 17 1
52 18 1
53 18 -1
54 18 1
55 19 1
56 19 -1
57 19 1
58 20 1
59 20 -1
60 20 1
61 21 1
62 21 -1
63 21 1
64 22 1
65 22 -1
66 22 1
67 23 1
68 23 -1
69 23 1
70 24 1
71 24 -1
72 24 1
73 25 1
74 25 -1
75 25 1
76 26 1
77 26 -1
78 26 1
79 27 1
80 27 -1
81 27 1
82 28 1
83 28 -1
84 28 1
85 29 1
86 29 -1
87 29 1
88 30 1
89 30 -1
90 30 1
91 31 1
92 31 -1
93 31 1
94 32 1
95 32 -1
96 32 1
97 33 1
98 33 -1
99 33 1
100 34 1
101 34 -1
102 34 1
103 35 1
104 35 -1
105 35 1
106 36 1
107 36 -1
108 36 1
109 37 1
110 37 -1
111 37 1
112 38 1
113 38 -1
114 38 1
115 39 1
116 39 -1
117 39 1
118 40 1
119 40 -1
120 40 1
121 41 1
122 41 -1
123 41 1
124 42 1
125 42 -1
126 42 1
127 43 1
128 43 -1
129 43 1
130 44 1
131 44 -1
132 44 1
133 45 1
134 45 -1
135 45 1
136 46 1
137 46 -1
138 46 1
139 47 1
140 47 -1
141 47 1
142 48 1
143 48 -1
144 48 1
145 49 1
146 49 -1
147 49 1
148 50 1
149 50 -1
150 50 1
151 51 1
152 51 -1
153 51 1
154 52 1
155 52 -1
156 52 1
157 53 1
158 53 -1
159 53 1
160 54 1
161 54 -1
162 54 1
163 55 1
164 55 -1
165 55 1
166 56 1
167 56 -1
168 56 1
169 57 1
170 57 -1
171 57 1
172 58 1
173 58 -1
174 58 1
175 59 1
176 59 -1
177 59 1
178 60 1
179 60 -1
180 60 1
181 61 1
182 61 -1
183 61 1
184 62 1
185 62 -1
186 62 1
187 63 1
188 63 -1
189 63 1
190 64 1
191 64 -1
192 64 1
193 65 1
194 65 -1
195 65 1
196 66 1
197 66 -1
198 66 1
199 67 1
200 67 -1
201 67 1
202 68 1
203 68 -1
204 68 1
205 69 1
206 69 -1
207 69 1
208 70 1
209 70 -1
210 70 1
211 71 1
212 71 -1
213 71 1
214 72 1
215 72 -1
216 72 1
217 73 1
218 73 -1
219 73 1
220 74 1
221 74 -1
222 74 1
223 75 1
224 75 -1
225 75 1
226 76 1
227 76 -1
228 76 1
229 77 1
230 77 -1
231 77 1
232 78 1
233 78 -1
234 78 1
235 79 1
236 79 -1
237 79 1
238 80 1
239 80 -1
240 80 1
241 81 1
242 81 -1
243 81 1
244 82 1
245 82 -1
246 82 1
247 83 1
248 83 -1
249 83 1
250 84 1
251 84 -1
252 84 1
253 85 1
254 85 -1
255 85 1
256 86 1
257 86 -1
258 86 1
259 87 1
260 87 -1
261 87 1
262 88 1
263 88 -1
264 88 1
265 89 1
266 89 -1
267 89 1
268 90 1
269 90 -1
270 90 1
271 91 1
272 91 -1
273 91 1
274 92 1
275 92 -1
276 92 1
277 93 1
278 93 -1
279 93 1
280 94 1
281 94 -1
282 94 1
283 95 1
284 95 -1
285 95 1
286 96 1
287 96 -1
288 96 1
289 97 1
290 97 -1
291 97 1
292 98 1
293 98 -1
294 98 1
295 99 1
296 99 -1
297 99 1
298 100 1
299 100 -1
300 100 1
301 101 1
302 101 -1
303 101 1
304 102 1
305 102 -1
306 102 1
307 103 1
308 103 -1
309 103 1
310 104 1
311 104 -1
312 104 1
313 105 1
314 105 -1
315 105 1
316 106 1
317 106 -1
318 106 1
319 107 1
320 107 -1
321 107 1
322 108 1
323 108 -1
324 108 1
325 109 1
326 109 -1
327 109 1
328 110 1
329 110 -1
330 110 1
331 111 1
332 111 -1
333 111 1
334 112 1
335 112 -1
336 112 1
337 113 1
338 113 -1
339 113 1
340 114 1
341 114 -1
342 114 1
343 115 1
344 115 -1
345 115 1
346 116 1
347 116 -1
348 116 1
349 117 1
350 117 -1
351 117 1
352 118 1
353 118 -1
354 118 1
355 119 1
356 119 -1
357 119 1
358 120 1
359 120 -1
360 120 1
353 121 1
361 121 -1
362 121 1
363 122 1
364 122 -1
365 122 1
366 123 1
367 123 -1
368 123 1
369 124 1
370 124 -1
371 124 1
372 125 1
373 125 -1
374 125 1
375 126 1
376 126 -1
377 126 1
378 127 1
379 127 -1
380 127 1
381 128 1
382 128 -1
383 128 1
384 129 1
385 129 -1
386 129 1
387 130 1
388 130 -1
389 130 1
390 131 1
391 131 -1
392 131 1
393 132 1
394 132 -1
395 132 1
396 133 1
397 133 -1
398 133 1
399 134 1
400 134 -1
401 134 1
402 135 1
403 135 -1
404 135 1
405 136 1
406 136 -1
407 136 1
408 137 1
409 137 -1
410 137 1
411 138 1
412 138 -1
413 138 1
414 139 1
415 139 -1
416 139 1
417 140 1
418 140 -1
419 140 1
420 141 1
421 141 -1
422 141 1
423 142 1
424 142 -1
425 142 1
426 143 1
427 143 -1
428 143 1
429 144 1
430 144 -1
431 144 1
432 145 1
433 145 -1
434 145 1
435 146 1
436 146 -1
437 146 1
438 147 1
439 147 -1
440 147 1
441 148 1
442 148 -1
443 148 1
444 149 1
445 149 -1
446 149 1
447 150 1
448 150 -1
449 150 1
450 151 1
451 151 -1
452 151 1
453 152 1
454 152 -1
455 152 1
456 153 1
457 153 -1
458 153 1
459 154 1
460 154 -1
461 154 1
462 155 1
463 155 -1
464 155 1
465 156 1
466 156 -1
467 156 1
468 157 1
469 157 -1
470 157 1
471 158 1
472 158 -1
473 158 1
474 159 1
475 159 -1
476 159 1
477 160 1
478 160 -1
479 160 1
480 161 1
481 161 -1
482 161 1
483 162 1
484 162 -1
485 162 1
486 163 1
487 163 -1
488 163 1
489 164 1
490 164 -1
491 164 1
492 165 1
493 165 -1
494 165 1
495 166 1
496 166 -1
497 166 1
498 167 1
499 167 -1
500 167 1
501 168 1
502 168 -1
503 168 1
504 169 1
505 169 -1
506 169 1
507 170 1
508 170 -1
509 170 1
510 171 1
511 171 -1
512 171 1
513 172 1
514 172 -1
515 172 1
516 173 1
517 173 -1
518 173 1
519 174 1
520 174 -1
521 174 1
522 175 1
523 175 -1
524 175 1
525 176 1
526 176 -1
527 176 1
528 177 1
529 177 -1
530 177 1
531 178 1
532 178 -1
533 178 1
534 179 1
535 179 -1
536 179 1
537 180 1
538 180 -1
539 180 1
540 181 1
541 181 -1
542 181 1
543 182 1
544 182 -1
545 182 1
546 183 1
547 183 -1
548 183 1
549 184 1
550 184 -1
551 184 1
552 185 1
553 185 -1
554 185 1
555 186 1
556 186 -1
557 186 1
558 187 1
559 187 -1
560 187 1
561 188 1
562 188 -1
563 188 1
564 189 1
565 189 -1
566 189 1
567 190 1
568 190 -1
569 190 1
570 191 1
571 191 -1
572 191 1
573 192 1
574 192 -1
575 192 1
576 193 1
577 193 -1
578 193 1
579 194 1
580 194 -1
581 194 1
582 195 1
583 195 -1
584 195 1
585 196 1
586 196 -1
587 196 1
588 197 1
589 197 -1
590 197 1
591 198 1
592 198 -1
593 198 1
594 199 1
595 199 -1
596 199 1
597 200 1
598 200 -1
599 200 1
600 201 1
601 201 -1
602 201 1
603 202 1
604 202 -1
605 202 1
606 203 1
607 203 -1
608 203 1
609 204 1
610 204 -1
611 204 1
612 205 1
613 205 -1
614 205 1
615 206 1
616 206 -1
617 206 1
618 207 1
619 207 -1
620 207 1
621 208 1
622 208 -1
623 208 1
624 209 1
625 209 -1
626 209 1
627 210 1
628 210 -1
629 210 1
630 211 1
631 211 -1
632 211 1
633 212 1
634 212 -1
635 212 1
636 213 1
637 213 -1
638 213 1
639 214 1
640 214 -1
641 214 1
642 215 1
643 215 -1
644 215 1
645 216 1
646 216 -1
647 216 1
648 217 1
649 217 -1
650 217 1
651 218 1
652 218 -1
653 218 1
654 219 1
655 219 -1
656 219 1
657 220 1
658 220 -1
659 220 1
660 221 1
661 221 -1
662 221 1
663 222 1
664 222 -1
665 222 1
666 223 1
667 223 -1
668 223 1
669 224 1
670 224 -1
671 224 1
672 225 1
673 225 -1
674 225 1
675 226 1
676 226 -1
677 226 1
678 227 1
679 227 -1
680 227 1
681 228 1
682 228 -1
683 228 1
684 229 1
685 229 -1
686 229 1
687 230 1
688 230 -1
689 230 1
690 231 1
691 231 -1
692 231 1
693 232 1
694 232 -1
695 232 1
696 233 1
697 233 -1
698 233 1
699 234 1
700 234 -1
701 234 1
702 235 1
703 235 -1
704 235 1
705 236 1
706 236 -1
707 236 1
708 237 1
709 237 -1
710 237 1
711 238 1
712 238 -1
713 238 1
714 239 1
715 239 -1
716 239 1
717 240 1
718 240 -1
719 240 1
720 241 1
721 241 -1
722 241 1
723 242 1
724 242 -1
725 242 1
726 243 1
727 243 -1
728 243 1
729 244 1
730 244 -1
731 244 1
732 245 1
733 245 -1
734 245 1
735 246 1
736 246 -1
737 246 1
738 247 1
739 247 -1
740 247 1
741 248 1
742 248 -1
743 248 1
744 249 1
745 249 -1
746 249 1
747 250 1
748 250 -1
749 250 1
750 251 1
751 251 -1
752 251 1
753 252 1
754 252 -1
755 252 1
756 253 1
757 253 -1
758 253 1
759 254 1
760 254 -1
761 254 1
762 255 1
763 255 -1
764 255 1
765 256 1
766 256 -1
767 256 1
768 257 1
769 257 -1
770 257 1
771 258 1
772 258 -1
773 258 1
774 259 1
775 259 -1
776 259 1
777 260 1
778 260 -1
779 260 1
780 261 1
781 261 -1
782 261 1
783 262 1
784 262 -1
785 262 1
786 263 1
787 263 -1
788 263 1
789 264 1
790 264 -1
791 264 1
792 265 1
793 265 -1
794 265 1
795 266 1
796 266 -1
797 266 1
798 267 1
799 267 -1
800 267 1
801 268 1
802 268 -1
803 268 1
804 269 1
805 269 -1
806 269 1
807 270 1
808 270 -1
809 270 1
810 271 1
811 271 -1
812 271 1
813 272 1
814 272 -1
815 272 1
816 273 1
817 273 -1
818 273 1
819 274 1
820 274 -1
821 274 1
822 275 1
823 275 -1
824 275 1
825 276 1
826 276 -1
827 276 1
828 277 1
829 277 -1
830 277 1
831 278 1
832 278 -1
833 278 1
834 279 1
835 279 -1
836 279 1
837 280 1
838 280 -1
839 280 1
840 281 1
841 281 -1
842 281 1
843 282 1
844 282 -1
845 282 1
846 283 1
847 283 -1
848 283 1
849 284 1
850 284 -1
851 284 1
852 285 1
853 285 -1
854 285 1
855 286 1
856 286 -1
857 286 1
858 287 1
859 287 -1
860 287 1
861 288 1
862 288 -1
863 288 1
864 289 1
865 289 -1
866 289 1
867 290 1
868 290 -1
869 290 1
870 291 1
871 291 -1
872 291 1
873 292 1
874 292 -1
875 292 1
876 293 1
877 293 -1
878 293 1
879 294 1
880 294 -1
881 294 1
882 295 1
883 295 -1
884 295 1
885 296 1
886 296 -1
887 296 1
888 297 1
889 297 -1
890 297 1
891 298 1
892 298 -1
893 298 1
894 299 1
895 299 -1
896 299 1
897 300 1
898 300 -1
899 300 1
900 301 1
901 301 -1
902 301 1
903 302 1
904 302 -1
905 302 1
906 303 1
907 303 -1
908 303 1
909 304 1
910 304 -1
911 304 1
912 305 1
913 305 -1
914 305 1
915 306 1
916 306 -1
917 306 1
918 307 1
919 307 -1
920 307 1
921 308 1
922 308 -1
923 308 1
924 309 1
925 309 -1
926 309 1
927 310 1
928 310 -1
929 310 1
930 311 1
931 311 -1
932 311 1
933 312 1
934 312 -1
935 312 1
936 313 1
937 313 -1
938 313 1
939 314 1
940 314 -1
941 314 1
942 315 1
943 315 -1
944 315 1
945 316 1
946 316 -1
947 316 1
948 317 1
949 317 -1
950 317 1
951 318 1
952 318 -1
953 318 1
954 319 1
955 319 -1
956 319 1
957 320 1
958 320 -1
959 320 1
960 321 1
961 321 -1
962 321 1
963 322 1
964 322 -1
965 322 1
966 323 1
967 323 -1
968 323 1
969 324 1
970 324 -1
971 324 1
972 325 1
973 325 -1
974 325 1
975 326 1
976 326 -1
977 326 1
978 327 1
979 327 -1
980 327 1
981 328 1
982 328 -1
983 328 1
984 329 1
985 329 -1
986 329 1
987 330 1
988 330 -1
989 330 1
990 331 1
991 331 -1
992 331 1
993 332 1
994 332 -1
995 332 1
996 333 1
997 333 -1
998 333 1
999 334 1
1000 334 -1
1001 334 1
1002 335 1
1003 335 -1
1004 335 1
1005 336 1
1006 336 -1
1007 336 1
1008 337 1
1009 337 -1
1010 337 1
1011 338 1
1012 338 -1
1013 338 1
1014 339 1
1015 339 -1
1016 339 1
1017 340 1
1018 340 -1
1019 340 1
1020 341 1
1021 341 -1
1022 341 1
1023 342 1
1024 342 -1
1025 342 1
1026 343 1
1027 343 -1
1028 343 1
1029 344 1
1030 344 -1
1031 344 1
1032 345 1
1033 345 -1
1034 345 1
1035 346 1
1036 346 -1
1037 346 1
1038 347 1
1039 347 -1
1040 347 1
1041 348 1
1042 348 -1
1043 348 1
1044 349 1
1045 349 -1
1046 349 1
1047 350 1
1048 350 -1
1049 350 1
1050 351 1
1051 351 -1
1052 351 1
1053 352 1
1054 352 -1
1055 352 1
1056 353 1
1057 353 -1
1058 353 1
1059 354 1
1060 354 -1
1061 354 1
1062 355 1
1063 355 -1
1064 355 1
1065 356 1
1066 356 -1
1067 356 1
1068 357 1
1069 357 -1
1070 357 1
1071 358 1
1072 358 -1
1073 358 1
1074 359 1
1075 359 -1
1076 359 1
1077 360 1
1078 360 -1
1079 360 1
1080 361 1
1081 361 -1
1082 361 1
1083 362 1
1084 362 -1
1085 362 1
1086 363 1
1087 363 -1
1088 363 1
1089 364 1
1090 364 -1
1091 364 1
1092 365 1
1093 365 -1
1094 365 1
1095 366 1
1096 366 -1
1097 366 1
1098 367 1
1099 367 -1
1100 367 1
1101 368 1
1102 368 -1
1103 368 1
1104 369 1
1105 369 -1
1106 369 1
1107 370 1
1108 370 -1
1109 370 1
1110 371 1
1111 371 -1
1112 371 1
1113 372 1
1114 372 -1
1115 372 1
1116 373 1
1117 373 -1
1118 373 1
1119 374 1
1120 374 -1
1121 374 1
1122 375 1
1123 375 -1
1124 375 1
1125 376 1
1126 376 -1
1127 376 1
1128 377 1
1129 377 -1
1130 377 1
1131 378 1
1132 378 -1
1133 378 1
1134 379 1
1135 379 -1
1136 379 1
1137 380 1
1138 380 -1
1139 380 1
1140 381 1
1141 381 -1
1142 381 1
1143 382 1
1144 382 -1
1145 382 1
1146 383 1
1147 383 -1
1148 383 1
1149 384 1
1150 384 -1
1151 384 1
1152 385 1
1153 385 -1
1154 385 1
1155 386 1
1156 386 -1
1157 386 1
1158 387 1
1159 387 -1
1160 387 1
1161 388 1
1162 388 -1
1163 388 1
1164 389 1
1165 389 -1
1166 389 1
1167 390 1
1168 390 -1
1169 390 1
1170 391 1
1171 391 -1
1172 391 1
1173 392 1
1174 392 -1
1175 392 1
1176 393 1
1177 393 -1
1178 393 1
1179 394 1
1180 394 -1
1181 394 1
1182 395 1
1183 395 -1
1184 395 1
1185 396 1
1186 396 -1
1187 396 1
1188 397 1
1189 397 -1
1190 397 1
1191 398 1
1192 398 -1
1193 398 1
1194 399 1
1195 399 -1
1196 399 1
1197 400 1
1198 400 -1
1199 400 1
1200 401 1
1201 401 -1
1202 401 1
1203 402 1
1204 402 -1
1205 402 1
1206 403 1
1207 403 -1
1208 403 1
1209 404 1
1210 404 -1
1211 404 1
1212 405 1
1213 405 -1
1214 405 1
1215 406 1
1216 406 -1
1217 406 1
1218 407 1
1219 407 -1
1220 407 1
1221 408 1
1222 408 -1
1223 408 1
1224 409 1
1225 409 -1
1226 409 1
1227 410 1
1228 410 -1
1229 410 1
1230 411 1
1231 411 -1
1232 411 1
1233 412 1
1234 412 -1
1235 412 1
1236 413 1
1237 413 -1
1238 413 1
1239 414 1
1240 414 -1
1241 414 1
1242 415 1
1243 415 -1
1244 415 1
1245 416 1
1246 416 -1
1247 416 1
1248 417 1
1249 417 -1
1250 417 1
1251 418 1
1252 418 -1
1253 418 1
1254 419 1
1255 419 -1
1256 419 1
1257 420 1
1258 420 -1
1259 420 1
1260 421 1
1261 421 -1
1262 421 1
1263 422 1
1264 422 -1
1265 422 1
1266 423 1
1267 423 -1
1268 423 1
1269 424 1
1270 424 -1
1271 424 1
1272 425 1
1273 425 -1
1274 425 1
1275 426 1
1276 426 -1
1277 426 1
1278 427 1
1279 427 -1
1280 427 1
1281 428 1
1282 428 -1
1283 428 1
1284 429 1
1285 429 -1
1286 429 1
1287 430 1
1288 430 -1
1289 430 1
1290 431 1
1291 431 -1
1292 431 1
1293 432 1
1294 432 -1
1295 432 1
1296 433 1
1297 433 -1
1298 433 1
1299 434 1
1300 434 -1
1301 434 1
1302 435 1
1303 435 -1
1304 435 1
1305 436 1
1306 436 -1
1307 436 1
1308 437 1
1309 437 -1
1310 437 1
1311 438 1
1312 438 -1
1313 438 1
1314 439 1
1315 439 -1
1316 439 1
1317 440 1
1318 440 -1
1319 440 1
1320 441 1
1321 441 -1
1322 441 1
1323 442 1
1324 442 -1
1325 442 1
1326 443 1
1327 443 -1
1328 443 1
1329 444 1
1330 444 -1
1331 444 1
1332 445 1
1333 445 -1
1334 445 1
1335 446 1
1336 446 -1
1337 446 1
1338 447 1
1339 447 -1
1340 447 1
1341 448 1
1342 448 -1
1343 448 1
1344 449 1
1345 449 -1
1346 449 1
1347 450 1
1348 450 -1
1349 450 1
1350 451 1
1351 451 -1
1352 451 1
1353 452 1
1354 452 -1
1355 452 1
1356 453 1
1357 453 -1
1358 453 1
1359 454 1
1360 454 -1
1361 454 1
1362 455 1
1363 455 -1
1364 455 1
1365 456 1
1366 456 -1
1367 456 1
1368 457 1
1369 457 -1
1370 457 1
1371 458 1
1372 458 -1
1373 458 1
1374 459 1
1375 459 -1
1376 459 1
1377 460 1
1378 460 -1
1379 460 1
1380 461 1
1381 461 -1
1382 461 1
1383 462 1
1384 462 -1
1385 462 1
1386 463 1
1387 463 -1
1388 463 1
1389 464 1
1390 464 -1
1391 464 1
1392 465 1
1393 465 -1
1394 465 1
1395 466 1
1396 466 -1
1397 466 1
1398 467 1
1399 467 -1
1400 467 1
1401 468 1
1402 468 -1
1403 468 1
1404 469 1
1405 469 -1
1406 469 1
1407 470 1
1408 470 -1
1409 470 1
1410 471 1
1411 471 -1
1412 471 1
1413 472 1
1414 472 -1
1415 472 1
1416 473 1
1417 473 -1
1418 473 1
1419 474 1
1420 474 -1
1421 474 1
1422 475 1
1423 475 -1
1424 475 1
1425 476 1
1426 476 -1
1427 476 1
1428 477 1
1429 477 -1
1430 477 1
1431 478 1
1432 478 -1
1433 478 1
1434 479 1
1435 479 -1
1436 479 1
1437 480 1
1438 480 -1
1439 480 1
1440 481 1
1441 481 -1
1442 481 1
1443 482 1
1444 482 -1
1445 482 1
1446 483 1
1447 483 -1
1448 483 1
1449 484 1
1450 484 -1
1451 484 1
1452 485 1
1453 485 -1
1454 485 1
1455 486 1
1456 486 -1
1457 486 1
1458 487 1
1459 487 -1
1460 487 1
1461 488 1
1462 488 -1
1463 488 1
1464 489 1
1465 489 -1
1466 489 1
1467 490 1
1468 490 -1
1469 490 1
1470 491 1
1471 491 -1
1472 491 1
1473 492 1
1474 492 -1
1475 492 1
1476 493 1
1477 493 -1
1478 493 1
1479 494 1
1480 494 -1
1481 494 1
1482 495 1
1483 495 -1
1484 495 1
1485 496 1
1486 496 -1
1487 496 1
1488 497 1
1489 497 -1
1490 497 1
1491 498 1
1492 498 -1
1493 498 1
1494 499 1
1495 499 -1
1496 499 1
1497 500 1
1498 500 -1
1499 500 1
1500 501 1
1501 501 -1
1502 501 1
1503 502 1
1504 502 -1
1505 502 1
1506 503 1
1507 503 -1
1508 503 1
1509 504 1
1510 504 -1
1511 504 1
1512 505 1
1513 505 -1
1514 505 1
1515 506 1
1516 506 -1
1517 506 1
1518 507 1
1519 507 -1
1520 507 1
1521 508 1
1522 508 -1
1523 508 1
1524 509 1
1525 509 -1
1526 509 1
1527 510 1
1528 510 -1
1529 510 1
1530 511 1
1531 511 -1
1532 511 1
1533 512 1
1534 512 -1
1535 512 1
1536 513 1
1537 513 -1
1538 513 1
1539 514 1
1540 514 -1
1541 514 1
1542 515 1
1543 515 -1
1544 515 1
1545 516 1
1546 516 -1
1547 516 1
1548 517 1
1549 517 -1
1550 517 1
1551 518 1
1552 518 -1
1553 518 1
1554 519 1
1555 519 -1
1556 519 1
1557 520 1
1558 520 -1
1559 520 1
1560 521 1
1561 521 -1
1562 521 1
1563 522 1
1564 522 -1
1565 522 1
1566 523 1
1567 523 -1
1568 523 1
1569 524 1
1570 524 -1
1571 524 1
1572 525 1
1573 525 -1
1574 525 1
1575 526 1
1576 526 -1
1577 526 1
1578 527 1
1579 527 -1
1580 527 1
1581 528 1
1582 528 -1
1583 528 1
1584 529 1
1585 529 -1
1586 529 1
1587 530 1
1588 530 -1
1589 530 1
1590 531 1
1591 531 -1
1592 531 1
1593 532 1
1594 532 -1
1595 532 1
1596 533 1
1597 533 -1
1598 533 1
1599 534 1
1600 534 -1
1601 534 1
1602 535 1
1603 535 -1
1604 535 1
1605 536 1
1606 536 -1
1607 536 1
1608 537 1
1609 537 -1
1610 537 1
1611 538 1
1612 538 -1
1613 538 1
1614 539 1
1615 539 -1
1616 539 1
1617 540 1
1618 540 -1
1619 540 1
1620 541 1
1621 541 -1
1622 541 1
1623 542 1
1624 542 -1
1625 542 1
1626 543 1
1627 543 -1
1628 543 1
1629 544 1
1630 544 -1
1631 544 1
1632 545 1
1633 545 -1
1634 545 1
1635 546 1
1636 546 -1
1637 546 1
1638 547 1
1639 547 -1
1640 547 1
1641 548 1
1642 548 -1
1643 548 1
1644 549 1
1645 549 -1
1646 549 1
1647 550 1
1648 550 -1
1649 550 1
1650 551 1
1651 551 -1
1652 551 1
1653 552 1
1654 552 -1
1655 552 1
1656 553 1
1657 553 -1
1658 553 1
1659 554 1
1660 554 -1
1661 554 1
1662 555 1
1663 555 -1
1664 555 1
1665 556 1
1666 556 -1
1667 556 1
1668 557 1
1669 557 -1
1670 557 1
1671 558 1
1672 558 -1
1673 558 1
1674 559 1
1675 559 -1
1676 559 1
1677 560 1
1678 560 -1
1679 560 1
1680 561 1
1681 561 -1
1682 561 1
1683 562 1
1684 562 -1
1685 562 1
1686 563 1
1687 563 -1
1688 563 1
1689 564 1
1690 564 -1
1691 564 1
1692 565 1
1693 565 -1
1694 565 1
1695 566 1
1696 566 -1
1697 566 1
1698 567 1
1699 567 -1
1700 567 1
1701 568 1
1702 568 -1
1703 568 1
1704 569 1
1705 569 -1
1706 569 1
1707 570 1
1708 570 -1
1709 570 1
1710 571 1
1711 571 -1
1712 571 1
1713 572 1
1714 572 -1
1715 572 1
1716 573 1
1717 573 -1
1718 573 1
1719 574 1
1720 574 -1
1721 574 1
1722 575 1
1723 575 -1
1724 575 1
1725 576 1
1726 576 -1
1727 576 1
1728 577 1
1729 577 -1
1730 577 1
1731 578 1
1732 578 -1
1733 578 1
1734 579 1
1735 579 -1
1736 579 1
1737 580 1
1738 580 -1
1739 580 1
1740 581 1
1741 581 -1
1742 581 1
1743 582 1
1744 582 -1
1745 582 1
1746 583 1
1747 583 -1
1748 583 1
1749 584 1
1750 584 -1
1751 584 1
1752 585 1
1753 585 -1
1754 585 1
1755 586 1
1756 586 -1
1757 586 1
1758 587 1
1759 587 -1
1760 587 1
1761 588 1
1762 588 -1
1763 588 1
1764 589 1
1765 589 -1
1766 589 1
1767 590 1
1768 590 -1
1769 590 1
1770 591 1
1771 591 -1
1772 591 1
1773 592 1
1774 592 -1
1775 592 1
1776 593 1
1777 593 -1
1778 593 1
1779 594 1
1780 594 -1
1781 594 1
1782 595 1
1783 595 -1
1784 595 1
1785 596 1
1786 596 -1
1787 596 1
1788 597 1
1789 597 -1
1790 597 1
1791 598 1
1792 598 -1
1793 598 1
1794 599 1
1795 599 -1
1796 599 1
1797 600 1
1798 600 -1
1799 600 1
1800 601 1
1801 601 -1
1802 601 1
1803 602 1
1804 602 -1
1805 602 1
1806 603 1
1807 603 -1
1808 603 1
1809 604 1
1810 604 -1
1811 604 1
1812 605 1
1813 605 -1
1814 605 1
1815 606 1
1816 606 -1
1817 606 1
1818 607 1
1819 607 -1
1820 607 1
1805 608 1
1821 608 1
1822 608 -1
1823 609 1
1824 609 -1
1825 609 1
1826 610 1
1827 610 -1
1828 610 1
1829 611 1
1830 611 -1
1831 611 1
1832 612 1
1833 612 -1
1834 612 1
1835 613 1
1836 613 -1
1837 613 1
1838 614 1
1839 614 -1
1840 614 1
1841 615 1
1842 615 -1
1843 615 1
1844 616 1
1845 616 -1
1846 616 1
1847 617 1
1848 617 -1
1849 617 1
1850 618 1
1851 618 -1
1852 618 1
1853 619 1
1854 619 -1
1855 619 1
1856 620 1
1857 620 -1
1858 620 1
1859 621 1
1860 621 -1
1861 621 1
1862 622 1
1863 622 -1
1864 622 1
1865 623 1
1866 623 -1
1867 623 1
1868 624 1
1869 624 -1
1870 624 1
1871 625 1
1872 625 -1
1873 625 1
1874 626 1
1875 626 -1
1876 626 1
1877 627 1
1878 627 -1
1879 627 1
1880 628 1
1881 628 -1
1882 628 1
1883 629 1
1884 629 -1
1885 629 1
1886 630 1
1887 630 -1
1888 630 1
1889 631 1
1890 631 -1
1891 631 1
1892 632 1
1893 632 -1
1894 632 1
1895 633 1
1896 633 -1
1897 633 1
1898 634 1
1899 634 -1
1900 634 1
1901 635 1
1902 635 -1
1903 635 1
1904 636 1
1905 636 -1
1906 636 1
1907 637 1
1908 637 -1
1909 637 1
1910 638 1
1911 638 -1
1912 638 1
1913 639 1
1914 639 -1
1915 639 1
1916 640 1
1917 640 -1
1918 640 1
1919 641 1
1920 641 -1
1921 641 1
1922 642 1
1923 642 -1
1924 642 1
1925 643 1
1926 643 -1
1927 643 1
1928 644 1
1929 644 -1
1930 644 1
1931 645 1
1932 645 -1
1933 645 1
1934 646 1
1935 646 -1
1936 646 1
1937 647 1
1938 647 -1
1939 647 1
1940 648 1
1941 648 -1
1942 648 1
1943 649 1
1944 649 -1
1945 649 1
1946 650 1
1947 650 -1
1948 650 1
1949 651 1
1950 651 -1
1951 651 1
1952 652 1
1953 652 -1
1954 652 1
1955 653 1
1956 653 -1
1957 653 1
1958 654 1
1959 654 -1
1960 654 1
1961 655 1
1962 655 -1
1963 655 1
1964 656 1
1965 656 -1
1966 656 1
1967 657 1
1968 657 -1
1969 657 1
1970 658 1
1971 658 -1
1972 658 1
1973 659 1
1974 659 -1
1975 659 1
1976 660 1
1977 660 -1
1978 660 1
1979 661 1
1980 661 -1
1981 661 1
1982 662 1
1983 662 -1
1984 662 1
1985 663 1
1986 663 -1
1987 663 1
1988 664 1
1989 664 -1
1990 664 1
1991 665 1
1992 665 -1
1993 665 1
1994 666 1
1995 666 -1
1996 666 1
1997 667 1
1998 667 -1
1999 667 1
2000 668 1
2001 668 -1
2002 668 1
2003 669 1
2004 669 -1
2005 669 1
2006 670 1
2007 670 -1
2008 670 1
2009 671 1
2010 671 -1
2011 671 1
2012 672 1
2013 672 -1
2014 672 1
2015 673 1
2016 673 -1
2017 673 1
2018 674 1
2019 674 -1
2020 674 1
2021 675 1
2022 675 -1
2023 675 1
2024 676 1
2025 676 -1
2026 676 1
2027 677 1
2028 677 -1
2029 677 1
2030 678 1
2031 678 -1
2032 678 1
2033 679 1
2034 679 -1
2035 679 1
2036 680 1
2037 680 -1
2038 680 1
2039 681 1
2040 681 -1
2041 681 1
2042 682 1
2043 682 -1
2044 682 1
2045 683 1
2046 683 -1
2047 683 1
2048 684 1
2049 684 -1
2050 684 1
2051 685 1
2052 685 -1
2053 685 1
2054 686 1
2055 686 -1
2056 686 1
2057 687 1
2058 687 -1
2059 687 1
2060 688 1
2061 688 -1
2062 688 1
2063 689 1
2064 689 -1
2065 689 1
2066 690 1
2067 690 -1
2068 690 1
2069 691 1
2070 691 -1
2071 691 1
2072 692 1
2073 692 -1
2074 692 1
2075 693 1
2076 693 -1
2077 693 1
2078 694 1
2079 694 -1
2080 694 1
2081 695 1
2082 695 -1
2083 695 1
2084 696 1
2085 696 -1
2086 696 1
2087 697 1
2088 697 -1
2089 697 1
2090 698 1
2091 698 -1
2092 698 1
2093 699 1
2094 699 -1
2095 699 1
2096 700 1
2097 700 -1
2098 700 1
2099 701 1
2100 701 -1
2101 701 1
2102 702 1
2103 702 -1
2104 702 1
2105 703 1
2106 703 -1
2107 703 1
2108 704 1
2109 704 -1
2110 704 1
2111 705 1
2112 705 -1
2113 705 1
2114 706 1
2115 706 -1
2116 706 1
2117 707 1
2118 707 -1
2119 707 1
2120 708 1
2121 708 -1
2122 708 1
2123 709 1
2124 709 -1
2125 709 1
2126 710 1
2127 710 -1
2128 710 1
2129 711 1
2130 711 -1
2131 711 1
2132 712 1
2133 712 -1
2134 712 1
2135 713 1
2136 713 -1
2137 713 1
2138 714 1
2139 714 -1
2140 714 1
2141 715 1
2142 715 -1
2143 715 1
2144 716 1
2145 716 -1
2146 716 1
2147 717 1
2148 717 -1
2149 717 1
2150 718 1
2151 718 -1
2152 718 1
2153 719 1
2154 719 -1
2155 719 1
2156 720 1
2157 720 -1
2158 720 1
2159 721 1
2160 721 -1
2161 721 1
2162 722 1
2163 722 -1
2164 722 1
2165 723 1
2166 723 -1
2167 723 1
2168 724 1
2169 724 -1
2170 724 1
2171 725 1
2172 725 -1
2173 725 1
2174 726 1
2175 726 -1
2176 726 1
2177 727 1
2178 727 -1
2179 727 1
2180 728 1
2181 728 -1
2182 728 1
2183 729 1
2184 729 -1
2185 729 1
2186 730 1
2187 730 -1
2188 730 1
2189 731 1
2190 731 -1
2191 731 1
2192 732 1
2193 732 -1
2194 732 1
2195 733 1
2196 733 -1
2197 733 1
2198 734 1
2199 734 -1
2200 734 1
2201 735 1
2202 735 -1
2203 735 1
2204 736 1
2205 736 -1
2206 736 1
2207 737 1
2208 737 -1
2209 737 1
2210 738 1
2211 738 -1
2212 738 1
2213 739 1
2214 739 -1
2215 739 1
2216 740 1
2217 740 -1
2218 740 1
2219 741 1
2220 741 -1
2221 741 1
2222 742 1
2223 742 -1
2224 742 1
2225 743 1
2226 743 -1
2227 743 1
2228 744 1
2229 744 -1
2230 744 1
2231 745 1
2232 745 -1
2233 745 1
2234 746 1
2235 746 -1
2236 746 1
2237 747 1
2238 747 -1
2239 747 1
2240 748 1
2241 748 -1
2242 748 1
2243 749 1
2244 749 -1
2245 749 1
2246 750 1
2247 750 -1
2248 750 1
2249 751 1
2250 751 -1
2251 751 1
2252 752 1
2253 752 -1
2254 752 1
2255 753 1
2256 753 -1
2257 753 1
2258 754 1
2259 754 -1
2260 754 1
2261 755 1
2262 755 -1
2263 755 1
2264 756 1
2265 756 -1
2266 756 1
2267 757 1
2268 757 -1
2269 757 1
2270 758 1
2271 758 -1
2272 758 1
2273 759 1
2274 759 -1
2275 759 1
2276 760 1
2277 760 -1
2278 760 1
2279 761 1
2280 761 -1
2281 761 1
2282 762 1
2283 762 -1
2284 762 1
2285 763 1
2286 763 -1
2287 763 1
2288 764 1
2289 764 -1
2290 764 1
2291 765 1
2292 765 -1
2293 765 1
2294 766 1
2295 766 -1
2296 766 1
2297 767 1
2298 767 -1
2299 767 1
2300 768 1
2301 768 -1
2302 768 1
2303 769 1
2304 769 -1
2305 769 1
2306 770 1
2307 770 -1
2308 770 1
2309 771 1
2310 771 -1
2311 771 1
2312 772 1
2313 772 -1
2314 772 1
2315 773 1
2316 773 -1
2317 773 1
2318 774 1
2319 774 -1
2320 774 1
2321 775 1
2322 775 -1
2323 775 1
2324 776 1
2325 776 -1
2326 776 1
2327 777 1
2328 777 -1
2329 777 1
2330 778 1
2331 778 -1
2332 778 1
2333 779 1
2334 779 -1
2335 779 1
2336 780 1
2337 780 -1
2338 780 1
2339 781 1
2340 781 -1
2341 781 1
2342 782 1
2343 782 -1
2344 782 1
2345 783 1
2346 783 -1
2347 783 1
2348 784 1
2349 784 -1
2350 784 1
2351 785 1
2352 785 -1
2353 785 1
2354 786 1
2355 786 -1
2356 786 1
2357 787 1
2358 787 -1
2359 787 1
2360 788 1
2361 788 -1
2362 788 1
2363 789 1
2364 789 -1
2365 789 1
2366 790 1
2367 790 -1
2368 790 1
2369 791 1
2370 791 -1
2371 791 1
2372 792 1
2373 792 -1
2374 792 1
2375 793 1
2376 793 -1
2377 793 1
2378 794 1
2379 794 -1
2380 794 1
2381 795 1
2382 795 -1
2383 795 1
2384 796 1
2385 796 -1
2386 796 1
2387 797 1
2388 797 -1
2389 797 1
2390 798 1
2391 798 -1
2392 798 1
2393 799 1
2394 799 -1
2395 799 1
2396 800 1
2397 800 -1
2398 800 1
2399 801 1
2400 801 -1
2401 801 1
2402 802 1
2403 802 -1
2404 802 1
2405 803 1
2406 803 -1
2407 803 1
2408 804 1
2409 804 -1
2410 804 1
2411 805 1
2412 805 -1
2413 805 1
2414 806 1
2415 806 -1
2416 806 1
2417 807 1
2418 807 -1
2419 807 1
2420 808 1
2421 808 -1
2422 808 1
2423 809 1
2424 809 -1
2425 809 1
2426 810 1
2427 810 -1
2428 810 1
2429 811 1
2430 811 -1
2431 811 1
2432 812 1
2433 812 -1
2434 812 1
2435 813 1
2436 813 -1
2437 813 1
2290 814 1
2438 814 -1
2439 814 1
2440 815 1
2441 815 -1
2442 815 1
2443 816 1
2444 816 -1
2445 816 1
2446 817 1
2447 817 -1
2448 817 1
2449 818 1
2450 818 -1
2451 818 1
2452 819 1
2453 819 -1
2454 819 1
2455 820 1
2456 820 -1
2457 820 1
2458 821 1
2459 821 -1
2460 821 1
2461 822 1
2462 822 -1
2463 822 1
2464 823 1
2465 823 -1
2466 823 1
2467 824 1
2468 824 -1
2469 824 1
2470 825 1
2471 825 -1
2472 825 1
2473 826 1
2474 826 -1
2475 826 1
2476 827 1
2477 827 -1
2478 827 1
2479 828 1
2480 828 -1
2481 828 1
2482 829 1
2483 829 -1
2484 829 1
2485 830 1
2486 830 -1
2487 830 1
2488 831 1
2489 831 -1
2490 831 1
2491 832 1
2492 832 -1
2493 832 1
2494 833 1
2495 833 -1
2496 833 1
2497 834 1
2498 834 -1
2499 834 1
2500 835 1
2501 835 -1
2502 835 1
2503 836 1
2504 836 -1
2505 836 1
2506 837 1
2507 837 -1
2508 837 1
2509 838 1
2510 838 -1
2511 838 1
2512 839 1
2513 839 -1
2514 839 1
2515 840 1
2516 840 -1
2517 840 1
2518 841 1
2519 841 -1
2520 841 1
2521 842 1
2522 842 -1
2523 842 1
2524 843 1
2525 843 -1
2526 843 1
2527 844 1
2528 844 -1
2529 844 1
2530 845 1
2531 845 -1
2532 845 1
2533 846 1
2534 846 -1
2535 846 1
2536 847 1
2537 847 -1
2538 847 1
2539 848 1
2540 848 -1
2541 848 1
2542 849 1
2543 849 -1
2544 849 1
2545 850 1
2546 850 -1
2547 850 1
2548 851 1
2549 851 -1
2550 851 1
2551 852 1
2552 852 -1
2553 852 1
2554 853 1
2555 853 -1
2556 853 1
2557 854 1
2558 854 -1
2559 854 1
2560 855 1
2561 855 -1
2562 855 1
2563 856 1
2564 856 -1
2565 856 1
2566 857 1
2567 857 -1
2568 857 1
2569 858 1
2570 858 -1
2571 858 1
2572 859 1
2573 859 -1
2574 859 1
2575 860 1
2576 860 -1
2577 860 1
2578 861 1
2579 861 -1
2580 861 1
2581 862 1
2582 862 -1
2583 862 1
2584 863 1
2585 863 -1
2586 863 1
2587 864 1
2588 864 -1
2589 864 1
2590 865 1
2591 865 -1
2592 865 1
2593 866 1
2594 866 -1
2595 866 1
2596 867 1
2597 867 -1
2598 867 1
2599 868 1
2600 868 -1
2601 868 1
2602 869 1
2603 869 -1
2604 869 1
2605 870 1
2606 870 -1
2607 870 1
2608 871 1
2609 871 -1
2610 871 1
2611 872 1
2612 872 -1
2613 872 1
2614 873 1
2615 873 -1
2616 873 1
2617 874 1
2618 874 -1
2619 874 1
2620 875 1
2621 875 -1
2622 875 1
2623 876 1
2624 876 -1
2625 876 1
2626 877 1
2627 877 -1
2628 877 1
2629 878 1
2630 878 -1
2631 878 1
2632 879 1
2633 879 -1
2634 879 1
2635 880 1
2636 880 -1
2637 880 1
2638 881 1
2639 881 -1
2640 881 1
2641 882 1
2642 882 -1
2643 882 1
2644 883 1
2645 883 -1
2646 883 1
2647 884 1
2648 884 -1
2649 884 1
2650 885 1
2651 885 -1
2652 885 1
2653 886 1
2654 886 -1
2655 886 1
2656 887 1
2657 887 -1
2658 887 1
2659 888 1
2660 888 -1
2661 888 1
2662 889 1
2663 889 -1
2664 889 1
2665 890 1
2666 890 -1
2667 890 1
2668 891 1
2669 891 -1
2670 891 1
2671 892 1
2672 892 -1
2673 892 1
2674 893 1
2675 893 -1
2676 893 1
2677 894 1
2678 894 -1
2679 894 1
2680 895 1
2681 895 -1
2682 895 1
2683 896 1
2684 896 -1
2685 896 1
2686 897 1
2687 897 -1
2688 897 1
2689 898 1
2690 898 -1
2691 898 1
2692 899 1
2693 899 -1
2694 899 1
2695 900 1
2696 900 -1
2697 900 1
2698 901 1
2699 901 -1
2700 901 1
2701 902 1
2702 902 -1
2703 902 1
2704 903 1
2705 903 -1
2706 903 1
2707 904 1
2708 904 -1
2709 904 1
2710 905 1
2711 905 -1
2712 905 1
2713 906 1
2714 906 -1
2715 906 1
2716 907 1
2717 907 -1
2718 907 1
2719 908 1
2720 908 -1
2721 908 1
2722 909 1
2723 909 -1
2724 909 1
2725 910 1
2726 910 -1
2727 910 1
2728 911 1
2729 911 -1
2730 911 1
2731 912 1
2732 912 -1
2733 912 1
2734 913 1
2735 913 -1
2736 913 1
2737 914 1
2738 914 -1
2739 914 1
2740 915 1
2741 915 -1
2742 915 1
2743 916 1
2744 916 -1
2745 916 1
2746 917 1
2747 917 -1
2748 917 1
2749 918 1
2750 918 -1
2751 918 1
2752 919 1
2753 919 -1
2754 919 1
2755 920 1
2756 920 -1
2757 920 1
2758 921 1
2759 921 -1
2760 921 1
2761 922 1
2762 922 -1
2763 922 1
2764 923 1
2765 923 -1
2766 923 1
2767 924 1
2768 924 -1
2769 924 1
2770 925 1
2771 925 -1
2772 925 1
2773 926 1
2774 926 -1
2775 926 1
2776 927 1
2777 927 -1
2778 927 1
2779 928 1
2780 928 -1
2781 928 1
2782 929 1
2783 929 -1
2784 929 1
2785 930 1
2786 930 -1
2787 930 1
2788 931 1
2789 931 -1
2790 931 1
2791 932 1
2792 932 -1
2793 932 1
2794 933 1
2795 933 -1
2796 933 1
2797 934 1
2798 934 -1
2799 934 1
2800 935 1
2801 935 -1
2802 935 1
2803 936 1
2804 936 -1
2805 936 1
2806 937 1
2807 937 -1
2808 937 1
2809 938 1
2810 938 -1
2811 938 1
2812 939 1
2813 939 -1
2814 939 1
2815 940 1
2816 940 -1
2817 940 1
2818 941 1
2819 941 -1
2820 941 1
2821 942 1
2822 942 -1
2823 942 1
2824 943 1
2825 943 -1
2826 943 1
2827 944 1
2828 944 -1
2829 944 1
2830 945 1
2831 945 -1
2832 945 1
2833 946 1
2834 946 -1
2835 946 1
2836 947 1
2837 947 -1
2838 947 1
2839 948 1
2840 948 -1
2841 948 1
2842 949 1
2843 949 -1
2844 949 1
2845 950 1
2846 950 -1
2847 950 1
2848 951 1
2849 951 -1
2850 951 1
2851 952 1
2852 952 -1
2853 952 1
2854 953 1
2855 953 -1
2856 953 1
2857 954 1
2858 954 -1
2859 954 1
2860 955 1
2861 955 -1
2862 955 1
2863 956 1
2864 956 -1
2865 956 1
2866 957 1
2867 957 -1
2868 957 1
2869 958 1
2870 958 -1
2871 958 1
2872 959 1
2873 959 -1
2874 959 1
2875 960 1
2876 960 -1
2877 960 1
2878 961 1
2879 961 -1
2880 961 1
2881 962 1
2882 962 -1
2883 962 1
2884 963 1
2885 963 -1
2886 963 1
2887 964 1
2888 964 -1
2889 964 1
2890 965 1
2891 965 -1
2892 965 1
2893 966 1
2894 966 -1
2895 966 1
2896 967 1
2897 967 -1
2898 967 1
2899 968 1
2900 968 -1
2901 968 1
2902 969 1
2903 969 -1
2904 969 1
2905 970 1
2906 970 -1
2907 970 1
2908 971 1
2909 971 -1
2910 971 1
2911 972 1
2912 972 -1
2913 972 1
2914 973 1
2915 973 -1
2916 973 1
2917 974 1
2918 974 -1
2919 974 1
2920 975 1
2921 975 -1
2922 975 1
2923 976 1
2924 976 -1
2925 976 1
2926 977 1
2927 977 -1
2928 977 1
2929 978 1
2930 978 -1
2931 978 1
2932 979 1
2933 979 -1
2934 979 1
2935 980 1
2936 980 -1
2937 980 1
2938 981 1
2939 981 -1
2940 981 1
2941 982 1
2942 982 -1
2943 982 1
2944 983 1
2945 983 -1
2946 983 1
2947 984 1
2948 984 -1
2949 984 1
2950 985 1
2951 985 -1
2952 985 1
2953 986 1
2954 986 -1
2955 986 1
2956 987 1
2957 987 -1
2958 987 1
2959 988 1
2960 988 -1
2961 988 1
2962 989 1
2963 989 -1
2964 989 1
2965 990 1
2966 990 -1
2967 990 1
2968 991 1
2969 991 -1
2970 991 1
2971 992 1
2972 992 -1
2973 992 1
2974 993 1
2975 993 -1
2976 993 1
2977 994 1
2978 994 -1
2979 994 1
2980 995 1
2981 995 -1
2982 995 1
2983 996 1
2984 996 -1
2985 996 1
2986 997 1
2987 997 -1
2988 997 1
2989 998 1
2990 998 -1
2991 998 1
2992 999 1
2993 999 -1
2994 999 1
2995 1000 1
2996 1000 -1
2997 1000 1
